nK = 659;
nT = 4;
nI = 7;
L = 29;
TT = 140;
np = 1;
nc = 3;
b = [23, 24, 51, 52, 28, 42, 22];
d = [68, 138, 94, 136, 125, 69, 87];
m = [1.4, 1.2, 1, 2.1, 1.8, 2.3, 1.2];
pt = [0.2, 0.33, 0.32, 0.26];
st = [8.2, 15.18, 14.72, 13.78];
arc = {<1, 0, 1, 1, 0, 0, 0, [1, 1, 1, 1]>, <2, 1, 2, 1, 0, 0, 0, [1, 1, 1, 1]>, <3, 2, 3, 1, 0, 0, 0, [1, 1, 1, 1]>, <4, 3, 4, 1, 0, 0, 0, [1, 1, 1, 1]>, <5, 4, 5, 1, 0, 0, 0, [1, 1, 1, 1]>, <6, 5, 6, 1, 0, 0, 0, [1, 1, 1, 1]>, <7, 6, 7, 1, 0, 0, 0, [1, 1, 1, 1]>, <8, 7, 8, 1, 0, 0, 0, [1, 1, 1, 1]>, <9, 8, 9, 1, 0, 0, 0, [1, 1, 1, 1]>, <10, 9, 10, 1, 0, 0, 0, [1, 1, 1, 1]>, <11, 10, 11, 1, 0, 0, 0, [1, 1, 1, 1]>, <12, 11, 12, 1, 0, 0, 0, [1, 1, 1, 1]>, <13, 12, 13, 1, 0, 0, 0, [1, 1, 1, 1]>, <14, 13, 14, 1, 0, 0, 0, [1, 1, 1, 1]>, <15, 14, 15, 1, 0, 0, 0, [1, 1, 1, 1]>, <16, 15, 16, 1, 0, 0, 0, [1, 1, 1, 1]>, <17, 16, 17, 1, 0, 0, 0, [1, 1, 1, 1]>, <18, 17, 18, 1, 0, 0, 0, [1, 1, 1, 1]>, <19, 18, 19, 1, 0, 0, 0, [1, 1, 1, 1]>, <20, 19, 20, 1, 0, 0, 0, [1, 1, 1, 1]>, <21, 20, 21, 1, 0, 0, 0, [1, 1, 1, 1]>, <22, 21, 22, 1, 0, 0, 0, [1, 1, 1, 1]>, <23, 22, 23, 1, 0, 0, 0, [1, 1, 1, 1]>, <24, 23, 24, 1, 0, 0, 0, [1, 1, 1, 1]>, <25, 24, 25, 1, 0, 0, 0, [1, 1, 1, 1]>, <26, 25, 26, 1, 0, 0, 0, [1, 1, 1, 1]>, <27, 26, 27, 1, 0, 0, 0, [1, 1, 1, 1]>, <28, 27, 28, 1, 0, 0, 0, [1, 1, 1, 1]>, <29, 28, 29, 1, 0, 0, 0, [1, 1, 1, 1]>, <30, 1, 12, 11, 1, 0, 1, [1, 1, 0, 0]>, <31, 2, 13, 11, 1, 0, 1, [1, 1, 0, 0]>, <32, 3, 14, 11, 1, 0, 1, [1, 1, 0, 0]>, <33, 4, 15, 11, 1, 0, 1, [1, 1, 0, 0]>, <34, 5, 16, 11, 1, 0, 1, [1, 1, 0, 0]>, <35, 9, 20, 11, 1, 0, 1, [1, 1, 0, 0]>, <36, 10, 21, 11, 1, 0, 1, [1, 1, 0, 0]>, <37, 11, 22, 11, 1, 0, 1, [1, 1, 0, 0]>, <38, 12, 23, 11, 1, 0, 1, [1, 1, 0, 0]>, <39, 13, 24, 11, 1, 0, 1, [1, 1, 0, 0]>, <40, 14, 25, 11, 1, 0, 1, [1, 1, 0, 0]>, <41, 15, 26, 11, 1, 0, 1, [1, 1, 0, 0]>, <42, 16, 27, 11, 1, 0, 1, [1, 1, 0, 0]>, <43, 17, 28, 11, 1, 0, 1, [1, 1, 0, 0]>, <44, 18, 29, 11, 1, 0, 1, [1, 1, 0, 0]>, <45, 4, 11, 7, 2, 0, 1, [1, 1, 0, 0]>, <46, 5, 12, 7, 2, 0, 1, [1, 1, 0, 0]>, <47, 11, 18, 7, 2, 0, 1, [1, 1, 0, 0]>, <48, 12, 19, 7, 2, 0, 1, [1, 1, 0, 0]>, <49, 17, 24, 7, 2, 0, 1, [1, 1, 0, 0]>, <50, 18, 25, 7, 2, 0, 1, [1, 1, 0, 0]>, <51, 19, 26, 7, 2, 0, 1, [1, 1, 0, 0]>, <52, 20, 27, 7, 2, 0, 1, [1, 1, 0, 0]>, <53, 4, 12, 8, 3, 0, 1, [1, 0, 0, 1]>, <54, 5, 13, 8, 3, 0, 1, [1, 0, 0, 1]>, <55, 11, 19, 8, 3, 0, 1, [1, 0, 0, 1]>, <56, 12, 20, 8, 3, 0, 1, [1, 0, 0, 1]>, <57, 16, 24, 8, 3, 0, 1, [1, 0, 0, 1]>, <58, 17, 25, 8, 3, 0, 1, [1, 0, 0, 1]>, <59, 18, 26, 8, 3, 0, 1, [1, 0, 0, 1]>, <60, 19, 27, 8, 3, 0, 1, [1, 0, 0, 1]>, <61, 20, 28, 8, 3, 0, 1, [1, 0, 0, 1]>, <62, 2, 12, 10, 4, 0, 0, [1, 1, 0, 0]>, <63, 3, 13, 10, 4, 0, 0, [1, 1, 0, 0]>, <64, 4, 14, 10, 4, 0, 0, [1, 1, 0, 0]>, <65, 5, 15, 10, 4, 0, 0, [1, 1, 0, 0]>, <66, 10, 20, 10, 4, 0, 0, [1, 1, 0, 0]>, <67, 11, 21, 10, 4, 0, 0, [1, 1, 0, 0]>, <68, 12, 22, 10, 4, 0, 0, [1, 1, 0, 0]>, <69, 14, 24, 10, 4, 0, 0, [1, 1, 0, 0]>, <70, 15, 25, 10, 4, 0, 0, [1, 1, 0, 0]>, <71, 16, 26, 10, 4, 0, 0, [1, 1, 0, 0]>, <72, 17, 27, 10, 4, 0, 0, [1, 1, 0, 0]>, <73, 18, 28, 10, 4, 0, 0, [1, 1, 0, 0]>, <74, 19, 29, 10, 4, 0, 0, [1, 1, 0, 0]>, <75, 1, 12, 11, 5, 0, 1, [1, 1, 0, 0]>, <76, 2, 13, 11, 5, 0, 1, [1, 1, 0, 0]>, <77, 3, 14, 11, 5, 0, 1, [1, 1, 0, 0]>, <78, 4, 15, 11, 5, 0, 1, [1, 1, 0, 0]>, <79, 5, 16, 11, 5, 0, 1, [1, 1, 0, 0]>, <80, 9, 20, 11, 5, 0, 1, [1, 1, 0, 0]>, <81, 10, 21, 11, 5, 0, 1, [1, 1, 0, 0]>, <82, 11, 22, 11, 5, 0, 1, [1, 1, 0, 0]>, <83, 12, 23, 11, 5, 0, 1, [1, 1, 0, 0]>, <84, 13, 24, 11, 5, 0, 1, [1, 1, 0, 0]>, <85, 14, 25, 11, 5, 0, 1, [1, 1, 0, 0]>, <86, 15, 26, 11, 5, 0, 1, [1, 1, 0, 0]>, <87, 16, 27, 11, 5, 0, 1, [1, 1, 0, 0]>, <88, 17, 28, 11, 5, 0, 1, [1, 1, 0, 0]>, <89, 18, 29, 11, 5, 0, 1, [1, 1, 0, 0]>, <90, 2, 12, 10, 6, 1, 0, [1, 0, 0, 1]>, <91, 3, 13, 10, 6, 1, 0, [1, 0, 0, 1]>, <92, 4, 14, 10, 6, 1, 0, [1, 0, 0, 1]>, <93, 5, 15, 10, 6, 1, 0, [1, 0, 0, 1]>, <94, 10, 20, 10, 6, 1, 0, [1, 0, 0, 1]>, <95, 11, 21, 10, 6, 1, 0, [1, 0, 0, 1]>, <96, 12, 22, 10, 6, 1, 0, [1, 0, 0, 1]>, <97, 14, 24, 10, 6, 1, 0, [1, 0, 0, 1]>, <98, 15, 25, 10, 6, 1, 0, [1, 0, 0, 1]>, <99, 16, 26, 10, 6, 1, 0, [1, 0, 0, 1]>, <100, 17, 27, 10, 6, 1, 0, [1, 0, 0, 1]>, <101, 18, 28, 10, 6, 1, 0, [1, 0, 0, 1]>, <102, 19, 29, 10, 6, 1, 0, [1, 0, 0, 1]>, <103, 1, 12, 11, 7, 0, 1, [1, 0, 0, 1]>, <104, 2, 13, 11, 7, 0, 1, [1, 0, 0, 1]>, <105, 3, 14, 11, 7, 0, 1, [1, 0, 0, 1]>, <106, 4, 15, 11, 7, 0, 1, [1, 0, 0, 1]>, <107, 5, 16, 11, 7, 0, 1, [1, 0, 0, 1]>, <108, 9, 20, 11, 7, 0, 1, [1, 0, 0, 1]>, <109, 10, 21, 11, 7, 0, 1, [1, 0, 0, 1]>, <110, 11, 22, 11, 7, 0, 1, [1, 0, 0, 1]>, <111, 12, 23, 11, 7, 0, 1, [1, 0, 0, 1]>, <112, 13, 24, 11, 7, 0, 1, [1, 0, 0, 1]>, <113, 14, 25, 11, 7, 0, 1, [1, 0, 0, 1]>, <114, 15, 26, 11, 7, 0, 1, [1, 0, 0, 1]>, <115, 16, 27, 11, 7, 0, 1, [1, 0, 0, 1]>, <116, 17, 28, 11, 7, 0, 1, [1, 0, 0, 1]>, <117, 18, 29, 11, 7, 0, 1, [1, 0, 0, 1]>};
